
Gurobi 10.0.0 (linux64) logging started Sat Jan 27 17:35:41 2024

Set parameter LogFile to value "../results/logs/log_Brightkite_edges_2_250_2024_01_27_09_25.log"
Set parameter LazyConstraints to value 1
Gurobi Optimizer version 10.0.0 build v10.0.0rc2 (linux64)

CPU model: Intel(R) Core(TM) i7-9800X CPU @ 3.80GHz, instruction set [SSE2|AVX|AVX2|AVX512]
Thread count: 8 physical cores, 8 logical processors, using up to 8 threads

Optimize a model with 4731 rows, 116456 columns and 41097 nonzeros
Model fingerprint: 0x3ec8a139
Variable types: 0 continuous, 116456 integer (116456 binary)
Coefficient statistics:
  Matrix range     [1e+00, 2e+00]
  Objective range  [1e+00, 1e+00]
  Bounds range     [1e+00, 1e+00]
  RHS range        [1e+00, 2e+02]
Found heuristic solution: objective 34706.000000
Presolve removed 0 rows and 90569 columns
Presolve time: 0.04s
Presolved: 4731 rows, 25887 columns, 34698 nonzeros
Variable types: 0 continuous, 25887 integer (25887 binary)
Found heuristic solution: objective 34959.000000

Root relaxation: objective 3.529150e+04, 2504 iterations, 0.02 seconds (0.04 work units)

    Nodes    |    Current Node    |     Objective Bounds      |     Work
 Expl Unexpl |  Obj  Depth IntInf | Incumbent    BestBd   Gap | It/Node Time

     0     0 35291.5000    0   49 34959.0000 35291.5000  0.95%     -    0s
H    0     0                    35256.000000 35291.5000  0.10%     -    0s
     0     0 35281.0000    0   70 35256.0000 35281.0000  0.07%     -    1s
H    0     0                    35264.000000 35281.0000  0.05%     -    1s
     0     0 35281.0000    0   69 35264.0000 35281.0000  0.05%     -    3s
     0     0 35281.0000    0   70 35264.0000 35281.0000  0.05%     -    5s
H    0     0                    35267.000000 35281.0000  0.04%     -    5s
     0     0 35281.0000    0   68 35267.0000 35281.0000  0.04%     -    7s
     0     0 35281.0000    0   68 35267.0000 35281.0000  0.04%     -    9s
     0     0 35281.0000    0   68 35267.0000 35281.0000  0.04%     -   10s
     0     2 35281.0000    0   68 35267.0000 35281.0000  0.04%     -   14s
     1     4 35280.0000    1   68 35267.0000 35281.0000  0.04%   490   16s
     3     8 35279.0000    2   64 35267.0000 35281.0000  0.04%   165   20s
     7    16 35278.0000    3   56 35267.0000 35281.0000  0.04%   163   27s
    15    24 35278.0000    4   56 35267.0000 35281.0000  0.04%   276   42s
    23    32 35278.0000    5   56 35267.0000 35281.0000  0.04%   211   56s
    28    32 35279.7500    5   67 35267.0000 35280.0000  0.04%   203   65s
    31    40 35277.7500    6   59 35267.0000 35280.0000  0.04%   198   71s
    35    40 35279.0000    4   56 35267.0000 35280.0000  0.04%   186   78s
    39    48 35277.0000    6   52 35267.0000 35280.0000  0.04%   174   85s
    47    62 35277.5000    7   57 35267.0000 35280.0000  0.04%   162  100s
    53    62 35277.7500    6   59 35267.0000 35280.0000  0.04%   150  111s
    61    94 35277.2500    8   55 35267.0000 35279.0000  0.03%   131  126s
    84    94 35277.7500   10   51 35267.0000 35279.0000  0.03%  96.2  168s
    93   141 35276.5000    9   53 35267.0000 35279.0000  0.03%  87.3  184s
   117   141 35277.2500    8   55 35267.0000 35279.0000  0.03%  70.5  228s
   140   491 35275.2500   16   39 35267.0000 35279.0000  0.03%  60.3  270s
   152   491 35271.0000   25   16 35267.0000 35279.0000  0.03%  55.9  292s
   166   491 35277.5000    8   53 35267.0000 35279.0000  0.03%  53.9  314s
   178   491 35273.0000   20   24 35267.0000 35279.0000  0.03%  50.5  336s
   296   491 35268.5000   28   13 35267.0000 35279.0000  0.03%  34.2  524s
   570   444     cutoff   27      35267.0000 35279.0000  0.03%  20.8 1001s

Cutting planes:
  Gomory: 31
  Cover: 319
  MIR: 111
  GUB cover: 160
  Zero half: 28
  Mod-K: 2
  Lazy constraints: 549

Explored 1061 nodes (36607 simplex iterations) in 1002.35 seconds (5.54 work units)
Thread count was 8 (of 8 available processors)

Solution count 5: 35267 35264 35256 ... 34706

Optimal solution found (tolerance 0.00e+00)
Best objective 3.526700000000e+04, best bound 3.526700000000e+04, gap 0.0000%

User-callback calls 2610, time in user-callback 998.68 sec
